 vasp.5.4.4.18Apr17-6-g9f103f2a35 (build May 01 2020 14:57:12) complex

 executed on             LinuxIFC date 2020.10.25  22:08:25

 INCAR:
 POTCAR:    PAW_PBE B 06Sep2000
 POTCAR:    PAW_PBE N 08Apr2002
 POTCAR:    PAW_PBE C 08Apr2002
 POTCAR:    PAW_PBE F 08Apr2002
 POTCAR:    PAW_PBE O 08Apr2002

 POTCAR:    PAW_PBE B 06Sep2000
   VRHFIN =B: s2p1

   TITEL  = PAW_PBE B 06Sep2000
   POMASS =   10.811; ZVAL   =    3.000    mass and valenz
   ENMAX  =  318.614; ENMIN  =  238.960 eV

 POTCAR:    PAW_PBE N 08Apr2002
   VRHFIN =N: s2p3

   TITEL  = PAW_PBE N 08Apr2002
   POMASS =   14.001; ZVAL   =    5.000    mass and valenz
   ENMAX  =  400.000; ENMIN  =  300.000 eV

 POTCAR:    PAW_PBE C 08Apr2002
   VRHFIN =C: s2p2

[...]

 POTCAR:    PAW_PBE F 08Apr2002
   VRHFIN =F: s2p5

[...]

 POTCAR:    PAW_PBE O 08Apr2002
   VRHFIN =O: s2p4

   TITEL  = PAW_PBE O 08Apr2002
   POMASS =   16.000; ZVAL   =    6.000    mass and valenz
   ENMAX  =  400.000; ENMIN  =  300.000 eV

 Optimization of the real space projectors (new method)

 maximal supplied QI-value         = 22.11
 optimisation between [QCUT,QGAM] = [ 11.94, 23.88] = [ 39.92,159.67] Ry
 Optimized for a Real-space Cutoff    1.18 Angstroem

   l    n(q)    QCUT    max X(q) W(low)/X(q) W(high)/X(q)  e(spline)
   0      8    11.939    53.033    0.11E-03    0.34E-03    0.60E-07
   0      8    11.939    34.740    0.11E-03    0.34E-03    0.59E-07
   1      8    11.939    30.949    0.22E-03    0.20E-03    0.17E-06
   1      8    11.939    19.518    0.20E-03    0.18E-03    0.16E-06
 Optimization of the real space projectors (new method)

[...]

   l    n(q)    QCUT    max X(q) W(low)/X(q) W(high)/X(q)  e(spline)
   0      8    11.883    14.049    0.56E-04    0.86E-04    0.22E-06
   0      8    11.883     8.945    0.81E-04    0.11E-03    0.30E-06
   1      8    11.883     7.086    0.16E-03    0.15E-04    0.31E-06
   1      8    11.883     6.747    0.15E-03    0.14E-04    0.28E-06
 Optimization of the real space projectors (new method)

 maximal supplied QI-value         = 24.76
 optimisation between [QCUT,QGAM] = [ 11.88, 24.01] = [ 39.54,161.47] Ry
 Optimized for a Real-space Cutoff    1.18 Angstroem

   l    n(q)    QCUT    max X(q) W(low)/X(q) W(high)/X(q)  e(spline)
   0      8    11.883    20.381    0.86E-04    0.11E-03    0.31E-06
   0      8    11.883    15.268    0.94E-04    0.12E-03    0.33E-06
   1      8    11.883     5.964    0.19E-03    0.18E-04    0.33E-06
   1      8    11.883     5.382    0.17E-03    0.20E-04    0.29E-06
  PAW_PBE B 06Sep2000                   :
  PAW_PBE N 08Apr2002                   :
  PAW_PBE C 08Apr2002                   :
  PAW_PBE F 08Apr2002                   :
  PAW_PBE O 08Apr2002                   :

 POSCAR: B N C F O
  positions in direct lattice
  velocities in cartesian coordinates

 METAGGA = SCAN     LMAXTAU =  6    LMIXTAU =  F

 ion  position               nearest neighbor table
   1  0.167  0.083  0.501-  20 1.45  17 1.45  21 1.45
   2  0.167  0.333  0.501-  18 1.45  17 1.45  22 1.45
   3  0.167  0.583  0.501-  18 1.45  19 1.45  23 1.45
   4  0.167  0.833  0.501-  20 1.45  19 1.45  24 1.45
   5  0.417  0.083  0.501-  24 1.45  21 1.45  25 1.45
   6  0.417  0.333  0.501-  21 1.45  22 1.45  26 1.45
   7  0.417  0.583  0.501-  23 1.45  22 1.45  27 1.45
   8  0.417  0.833  0.501-  28 1.45  24 1.45  23 1.45
   9  0.667  0.083  0.501-  29 1.45  28 1.45  25 1.45
  10  0.667  0.333  0.501-  30 1.45  25 1.45  26 1.45
  11  0.667  0.583  0.501-  31 1.45  27 1.45  26 1.45
  12  0.667  0.833  0.501-  32 1.45  28 1.45  27 1.45
  13  0.917  0.083  0.501-  29 1.45  17 1.45  32 1.45
  14  0.917  0.333  0.501-  18 1.45  29 1.45  30 1.45
  15  0.917  0.583  0.501-  19 1.45  31 1.45  30 1.45
  16  0.917  0.833  0.501-  20 1.45  32 1.45  31 1.45
  17  0.083  0.167  0.501-   2 1.45   1 1.45  13 1.45
  18  0.083  0.417  0.501-   3 1.45   2 1.45  14 1.45
  19  0.083  0.667  0.501-   3 1.45   4 1.45  15 1.45
  20  0.083  0.917  0.501-   1 1.45   4 1.45  16 1.45
  21  0.333  0.167  0.501-   6 1.45   5 1.45   1 1.45
  22  0.333  0.417  0.501-   6 1.45   7 1.45   2 1.45
  23  0.333  0.667  0.501-   7 1.45   8 1.45   3 1.45
  24  0.333  0.917  0.501-   8 1.45   5 1.45   4 1.45
  25  0.583  0.167  0.501-  10 1.45   5 1.45   9 1.45
  26  0.583  0.417  0.501-   6 1.45  10 1.45  11 1.45
  27  0.583  0.667  0.501-   7 1.45  11 1.45  12 1.45
  28  0.583  0.917  0.501-   8 1.45  12 1.45   9 1.45
  29  0.833  0.167  0.501-   9 1.45  13 1.45  14 1.45
  30  0.833  0.417  0.501-  10 1.45  15 1.45  14 1.45
  31  0.833  0.667  0.501-  11 1.45  15 1.45  16 1.45
  32  0.833  0.917  0.501-  12 1.45  16 1.45  13 1.45
  33  0.565  0.441  0.660-  36 1.32  37 1.32  38 1.33  34 1.56
  34  0.548  0.368  0.620-  39 1.24  40 1.24  33 1.56
  35  0.470  0.797  0.607-  42 1.16  41 1.16
  36  0.699  0.569  0.661-  33 1.32
  37  0.556  0.342  0.686-  33 1.32
  38  0.451  0.470  0.664-  33 1.33
  39  0.662  0.394  0.601-  34 1.24
  40  0.419  0.287  0.605-  34 1.24
  41  0.601  0.877  0.601-  35 1.16
  42  0.339  0.717  0.612-  35 1.16

IMPORTANT INFORMATION: All symmetrisations will be switched off!
NOSYMM: (Re-)initialisation of all symmetry stuff for point group C_1.

 KPOINTS: K-Point Grid

Automatic generation of k-mesh.
Space group operators:
 irot       det(A)        alpha          n_x          n_y          n_z        tau_x        tau_y        tau_z
    1     1.000000     0.000000     1.000000     0.000000     0.000000     0.000000     0.000000     0.000000

 Subroutine IBZKPT returns following result:

 Found     24 irreducible k-points:

 Following reciprocal coordinates:
            Coordinates               Weight
  0.125000  0.125000  0.000000     16.000000
  0.250000 -0.125000  0.000000     16.000000
  0.125000 -0.250000  0.000000     16.000000
  0.375000  0.125000  0.000000     16.000000
  0.500000 -0.375000  0.000000     16.000000
  0.125000  0.500000  0.000000     16.000000
 -0.125000 -0.375000  0.000000     16.000000
  0.375000  0.500000  0.000000     16.000000
  0.500000 -0.125000  0.000000     16.000000
 -0.375000  0.125000  0.000000     16.000000
 -0.250000  0.375000  0.000000     16.000000
  0.125000  0.250000  0.000000     16.000000
 -0.125000  0.375000  0.000000     16.000000
 -0.375000  0.250000  0.000000     16.000000
 -0.250000 -0.125000  0.000000     16.000000
 -0.125000  0.125000  0.000000     16.000000
  0.000000  0.125000  0.000000     16.000000
  0.125000  0.000000  0.000000     16.000000
  0.375000  0.375000  0.000000     16.000000
 -0.250000 -0.375000  0.000000     16.000000
  0.375000  0.250000  0.000000     16.000000
 -0.375000  0.375000  0.000000     16.000000
  0.000000  0.375000  0.000000     16.000000
  0.375000  0.000000  0.000000     16.000000

 Following cartesian coordinates:
            Coordinates               Weight
  0.024879  0.000000  0.000000     16.000000
  0.012439 -0.021546  0.000000     16.000000
 -0.012439 -0.021546  0.000000     16.000000
  0.049758 -0.014364  0.000000     16.000000
  0.012439 -0.050273  0.000000     16.000000
  0.062197  0.021546  0.000000     16.000000
 -0.049758 -0.014364  0.000000     16.000000
  0.087076  0.007182  0.000000     16.000000
  0.037318 -0.035909  0.000000     16.000000
 -0.024879  0.028727  0.000000     16.000000
  0.012439  0.035909  0.000000     16.000000
  0.037318  0.007182  0.000000     16.000000
  0.024879  0.028727  0.000000     16.000000
 -0.012439  0.035909  0.000000     16.000000
 -0.037318  0.007182  0.000000     16.000000
  0.000000  0.014364  0.000000     16.000000
  0.012439  0.007182  0.000000     16.000000
  0.012439 -0.007182  0.000000     16.000000
  0.074636  0.000000  0.000000     16.000000
 -0.062197 -0.007182  0.000000     16.000000
  0.062197 -0.007182  0.000000     16.000000
  0.000000  0.043091  0.000000     16.000000
  0.037318  0.021546  0.000000     16.000000
  0.037318 -0.021546  0.000000     16.000000

 SYSTEM =  SiC
 POSCAR =  B N C F O

 Startparameter for this run:
   NWRITE =      2    write-flag & timer
   PREC   = accura    normal or accurate (medium, high low for compatibility)
   ISTART =      1    job   : 0-new  1-cont  2-samecut
   ICHARG =      0    charge: 1-file 2-atom 10-const
   ISPIN  =      2    spin polarized calculation?
   LNONCOLLINEAR =      F non collinear calculations
   LSORBIT =      F    spin-orbit coupling
   INIWAV =      1    electr: 0-lowe 1-rand  2-diag
   LASPH  =      T    aspherical Exc in radial PAW
   METAGGA=      F    non-selfconsistent MetaGGA calc.

 Electronic Relaxation 1
   ENCUT  =  550.0 eV  40.42 Ry    6.36 a.u.  19.22 19.22 67.15*2*pi/ulx,y,z
   ENINI  =  550.0     initial cutoff
   ENAUG  =  644.9 eV  augmentation charge cutoff
   NELM   =    100;   NELMIN=  2; NELMDL=  0     # of ELM steps
   EDIFF  = 0.1E-04   stopping-criterion for ELM
   LREAL  =      T    real-space projection
   NLSPLINE    = F    spline interpolate recip. space projectors
   LCOMPAT=      F    compatible to vasp.4.4
   GGA_COMPAT  = T    GGA compatible to vasp.4.4-vasp.4.6
   LMAXPAW     = -100 max onsite density
   LMAXMIX     =    2 max onsite mixed and CHGCAR
   VOSKOWN=      0    Vosko Wilk Nusair interpolation
   ROPT   =   -0.00025  -0.00025  -0.00025  -0.00025
   ROPT   =   -0.00025
 Ionic relaxation
   EDIFFG = -.2E-01   stopping-criterion for IOM
   NSW    =    500    number of steps for IOM
   NBLOCK =      1;   KBLOCK =    500    inner block; outer block
   IBRION =      2    ionic relax: 0-MD 1-quasi-New 2-CG
   NFREE  =      1    steps in history (QN), initial steepest desc. (CG)
   ISIF   =      2    stress and relaxation
   IWAVPR =     11    prediction:  0-non 1-charg 2-wave 3-comb
   ISYM   =      0    0-nonsym 1-usesym 2-fastsym
   LCORR  =      T    Harris-Foulkes like correction to forces

   POTIM  = 0.5000    time-step for ionic-motion
   TEIN   =    0.0    initial temperature
   TEBEG  =    0.0;   TEEND  =   0.0 temperature during run
   SMASS  =  -3.00    Nose mass-parameter (am)
   estimated Nose-frequenzy (Omega)   =  0.10E-29 period in steps =****** mass=  -0.231E-26a.u.
   SCALEE = 1.0000    scale energy and forces
   NPACO  =    256;   APACO  = 16.0  distance and # of slots for P.C.
   PSTRESS=    0.0 pullay stress

  Mass of Ions in am
   POMASS =  10.81 14.00 12.01 19.00 16.00
  Ionic Valenz
   ZVAL   =   3.00  5.00  4.00  7.00  6.00
  Atomic Wigner-Seitz radii
  virtual crystal weights
   VCA    =   1.00  1.00  1.00  1.00  1.00
   NELECT =     185.8000    total number of electrons
   NUPDOWN=      -1.0000    fix difference up-down

 DOS related values:
   EMIN   =  10.00;   EMAX   =-10.00  energy-range for DOS
   EFERMI =   0.00
   ISMEAR =     0;   SIGMA  =   0.05  broadening in eV -4-tet -1-fermi 0-gaus

 Electronic relaxation 2 (details)
   IALGO  =     68    algorithm
   LDIAG  =      T    sub-space diagonalisation (order eigenvalues)
   LSUBROT=      F    optimize rotation matrix (better conditioning)
   TURBO    =      0    0=normal 1=particle mesh
   IRESTART =      0    0=no restart 2=restart with 2 vectors
   NREBOOT  =      0    no. of reboots
   NMIN     =      0    reboot dimension
   EREF     =   0.00    reference energy to select bands
[...]

[...]

 spin component 2

[...]

 k-point    24 :       0.3750    0.0000    0.0000
  band No.  band energies     occupation
      1     -38.8193      1.00000
      2     -37.0894      1.00000
      3     -36.7466      1.00000
      4     -34.3955      1.00000
      5     -34.3714      1.00000
      6     -30.9609      1.00000
      7     -29.9611      1.00000
      8     -24.8519      1.00000
      9     -24.5464      1.00000
     10     -24.1033      1.00000
     11     -24.1020      1.00000
     12     -23.2824      1.00000
     13     -23.2812      1.00000
     14     -22.9247      1.00000
     15     -22.7901      1.00000
     16     -22.7890      1.00000
     17     -22.3320      1.00000
     18     -22.2862      1.00000
     19     -21.9663      1.00000
     20     -21.9654      1.00000
     21     -21.9218      1.00000
     22     -21.9198      1.00000
     23     -21.4657      1.00000
     24     -21.4652      1.00000
     25     -19.8393      1.00000
     26     -18.5754      1.00000
     27     -18.1844      1.00000
     28     -17.2031      1.00000
     29     -16.7931      1.00000
     30     -16.4657      1.00000
     31     -15.2814      1.00000
     32     -15.2806      1.00000
     33     -14.9164      1.00000
     34     -14.8367      1.00000
     35     -14.8151      1.00000
     36     -14.8138      1.00000
     37     -14.7845      1.00000
     38     -14.7829      1.00000
     39     -14.5325      1.00000
     40     -14.5310      1.00000
     41     -14.0555      1.00000
     42     -13.7326      1.00000
     43     -13.4131      1.00000
     44     -13.4123      1.00000
     45     -13.3643      1.00000
     46     -13.2043      1.00000
     47     -13.1677      1.00000
     48     -13.1606      1.00000
     49     -13.1351      1.00000
     50     -13.1322      1.00000
     51     -13.1252      1.00000
     52     -12.7535      1.00000
     53     -12.7530      1.00000
     54     -12.2886      1.00000
     55     -12.2550      1.00000
     56     -11.7650      1.00000
     57     -11.7448      1.00000
     58     -11.7442      1.00000
     59     -11.6347      1.00000
     60     -11.4457      1.00000
[...]
    178       3.9128      0.00000
    179       3.9393      0.00000
    180       4.0478      0.00000
    181       4.0933      0.00000
    182       4.1029      0.00000
    183       4.1533      0.00000
    184       4.2126      0.00000
    185       4.2860      0.00000
    186       4.3656      0.00000
    187       4.4272      0.00000
    188       4.4507      0.00000
    189       4.5050      0.00000
    190       4.5388      0.00000
    191       4.5824      0.00000
    192       4.5960      0.00000

[...]

 soft charge-density along one line, spin component           2
         0         1         2         3         4         5         6         7         8         9
 total charge-density along one line

------------------------ aborting loop because EDIFF is reached ----------------------------------------

[...]

  FORCE on cell =-STRESS in cart. coord.  units (eV):
  Direction    XX          YY          ZZ          XY          YZ          ZX
  Alpha Z    57.55240    57.55240    57.55240
  Ewald   68074.23548 68019.75421-71918.91694  -136.84849   123.31240   -12.68982
  Hartree 68193.08435 68490.02697-64723.59316   120.04375    54.98824    32.99730
  E(xc)    -830.93259  -830.92279  -835.71566     0.02043     0.31341     0.29242
  Local  ************************134173.52188   -29.88703  -178.67062   -39.18663
  n-local  -491.40356  -484.45252  -482.99676     5.21204    -2.09340    -0.01786
  augment   118.61128   122.46584   129.46100     3.40628     0.74044     1.72442
  Kinetic  3251.75395  3312.07206  3597.34360    42.89091    -0.61704    16.17985
  Fock        0.00000     0.00000     0.00000     0.00000     0.00000     0.00000
  Total     -12.60217    -7.01630    -3.34363     4.83789    -2.02656    -0.70032
  in kB      -6.57525    -3.66079    -1.74456     2.52419    -1.05737    -0.36540

 VOLUME and BASIS-vectors are now :
  energy-cutoff  :      550.00
  volume of cell :     3070.74
      direct lattice vectors                 reciprocal lattice vectors
     5.024366704 -8.702497373  0.000000000     0.099515029 -0.057454772  0.000000000
     5.024366704  8.702497373  0.000000000     0.099515029  0.057454772  0.000000000
     0.000000000  0.000000000 35.114664386     0.000000000  0.000000000  0.028478131

  length of vectors
    10.048767154 10.048767154 35.114664386     0.114909929  0.114909929  0.028478131

 FORCES acting on ions
    electron-ion (+dipol)            ewald-force                    non-local-force                 convergence-correction
   0.103E+02 -.384E+01 0.124E+03   -.107E+02 0.399E+01 -.126E+03   0.117E-01 -.892E-02 0.302E-02   -.152E-03 -.971E-04 0.101E-02
   0.100E+02 -.527E+01 0.125E+03   -.103E+02 0.558E+01 -.127E+03   0.156E-01 -.482E-02 0.389E-02   -.379E-04 0.166E-03 0.975E-03
   0.738E+01 -.417E+01 0.127E+03   -.741E+01 0.425E+01 -.129E+03   0.132E-01 -.105E-01 0.680E-02   -.229E-03 -.147E-03 0.849E-03
   0.467E+01 -.538E+01 0.123E+03   -.483E+01 0.534E+01 -.125E+03   0.718E-02 -.407E-02 0.340E-02   -.134E-03 0.263E-03 0.104E-02
   0.951E+01 0.251E+00 0.138E+03   -.989E+01 -.484E+00 -.141E+03   0.620E-02 0.263E-02 -.176E-02   0.329E-03 -.218E-03 0.115E-02
   0.947E+01 -.544E+01 0.150E+03   -.975E+01 0.568E+01 -.153E+03   0.181E-01 -.877E-02 -.149E-01   0.431E-03 -.311E-03 0.845E-03
   0.565E+01 -.473E+01 0.143E+03   -.563E+01 0.516E+01 -.146E+03   0.696E-02 0.109E-02 -.265E-02   0.365E-03 -.905E-04 0.110E-02
   0.340E+01 -.645E+01 0.143E+03   -.348E+01 0.641E+01 -.145E+03   -.432E-02 -.992E-02 -.170E-01   0.661E-03 -.309E-03 0.717E-03
   -.714E+01 0.513E+01 0.135E+03   0.715E+01 -.556E+01 -.137E+03   -.103E-01 0.910E-02 -.524E-02   -.242E-03 -.146E-03 0.936E-03
   -.464E+01 0.103E+02 0.148E+03   0.479E+01 -.107E+02 -.151E+03   -.517E-02 0.244E-01 -.133E-01   0.295E-04 0.225E-03 0.120E-02
   -.113E+02 0.213E+00 0.145E+03   0.118E+02 -.307E-01 -.147E+03   -.213E-01 0.160E-02 -.563E-02   -.477E-04 -.107E-03 0.941E-03
   -.105E+02 0.394E+01 0.139E+03   0.108E+02 -.382E+01 -.141E+03   -.196E-01 0.713E-03 -.579E-02   -.156E-04 0.224E-03 0.127E-02
   -.519E+01 0.282E+01 0.119E+03   0.510E+01 -.280E+01 -.121E+03   -.758E-03 0.383E-03 0.731E-02   -.278E-03 0.233E-03 0.144E-02
   -.364E+01 0.696E+01 0.122E+03   0.375E+01 -.725E+01 -.124E+03   0.287E-02 0.682E-02 0.510E-02   -.147E-03 0.150E-03 0.109E-02
   -.952E+01 0.416E+01 0.127E+03   0.991E+01 -.435E+01 -.130E+03   -.655E-02 0.448E-02 0.360E-02   -.277E-03 0.261E-03 0.137E-02
   -.857E+01 0.155E+01 0.121E+03   0.878E+01 -.145E+01 -.123E+03   -.656E-02 -.207E-02 0.304E-02   -.182E-03 0.124E-03 0.112E-02
   0.105E+02 -.471E+01 0.199E+03   -.110E+02 0.503E+01 -.202E+03   0.156E-01 -.536E-02 -.400E-01   -.444E-03 0.849E-04 0.424E-02
   0.892E+01 -.123E+01 0.201E+03   -.896E+01 0.132E+01 -.204E+03   0.623E-02 -.213E-02 -.416E-01   -.426E-03 0.498E-03 0.699E-03
   0.140E+01 -.436E+01 0.204E+03   -.123E+01 0.421E+01 -.207E+03   0.535E-04 -.483E-02 -.413E-01   0.253E-03 0.496E-03 0.467E-02
   0.387E+01 -.400E+01 0.198E+03   -.413E+01 0.408E+01 -.201E+03   0.259E-02 0.254E-02 -.187E-01   -.507E-03 -.239E-03 0.138E-02
   0.243E+02 -.477E+01 0.231E+03   -.252E+02 0.485E+01 -.235E+03   0.451E-01 0.579E-02 0.117E-01   0.377E-03 0.566E-04 0.293E-02
   0.176E+02 -.138E+02 0.231E+03   -.180E+02 0.146E+02 -.235E+03   0.300E-01 -.287E-01 0.180E-01   0.962E-04 -.542E-03 0.320E-02
   0.142E+02 -.100E+02 0.231E+03   -.144E+02 0.104E+02 -.234E+03   0.324E-01 -.172E-01 -.154E-02   0.311E-03 -.557E-03 0.252E-02
   0.120E+02 -.106E+02 0.221E+03   -.125E+02 0.104E+02 -.224E+03   0.190E-01 -.245E-01 0.730E-02   0.285E-03 -.723E-03 0.297E-02
   0.138E+01 0.126E+02 0.235E+03   -.158E+01 -.134E+02 -.239E+03   0.219E-01 0.218E-01 0.147E-01   0.161E-03 -.606E-03 0.299E-02
   -.549E+01 0.135E+01 0.256E+03   0.574E+01 -.137E+01 -.261E+03   -.653E-02 0.282E-02 0.571E-01   0.152E-03 -.458E-03 0.559E-03
   -.995E+01 0.230E+00 0.238E+03   0.106E+02 0.356E+00 -.242E+03   -.159E-01 -.975E-02 -.676E-02   0.722E-03 -.379E-03 0.314E-02
   -.111E+02 0.137E-01 0.239E+03   0.113E+02 -.289E+00 -.242E+03   -.254E-01 0.752E-02 0.104E+00   0.140E-03 -.142E-03 0.269E-04
   -.120E+02 0.108E+02 0.205E+03   0.120E+02 -.113E+02 -.208E+03   -.471E-02 0.161E-01 -.318E-01   -.530E-03 0.169E-03 0.232E-02
   -.149E+02 0.171E+02 0.221E+03   0.154E+02 -.178E+02 -.225E+03   -.319E-01 0.212E-01 -.945E-02   -.819E-03 -.496E-03 0.458E-02
   -.227E+02 0.440E+01 0.217E+03   0.235E+02 -.437E+01 -.221E+03   -.332E-01 0.191E-01 0.495E-02   -.718E-03 0.520E-03 0.164E-02
   -.182E+02 0.687E+01 0.207E+03   0.184E+02 -.668E+01 -.210E+03   -.211E-01 0.262E-02 -.424E-01   -.929E-03 -.216E-03 0.508E-02
   0.808E+01 0.209E+02 -.403E+03   -.797E+01 -.209E+02 0.405E+03   0.116E+01 0.129E+01 0.365E+01   -.328E-03 -.205E-02 -.495E-03
   0.925E+01 0.192E+02 -.378E+03   -.484E+01 -.145E+02 0.392E+03   -.402E+01 -.421E+01 -.128E+02   0.167E-02 -.878E-04 -.335E-02
   -.103E+02 -.351E+02 -.357E+03   0.101E+02 0.356E+02 0.357E+03   -.118E-01 -.259E-01 -.105E+00   0.177E-02 -.179E-02 -.270E-02
   -.514E+03 0.277E+02 -.804E+03   0.582E+03 -.293E+02 0.815E+03   -.627E+02 0.224E+01 -.399E+01   0.908E-02 -.383E-02 -.419E-02
   0.191E+03 0.294E+03 -.112E+04   -.215E+03 -.330E+03 0.118E+04   0.249E+02 0.367E+02 -.443E+02   0.178E-02 -.515E-04 -.107E-01
   0.159E+03 -.442E+03 -.859E+03   -.179E+03 0.506E+03 0.876E+03   0.193E+02 -.589E+02 -.890E+01   -.483E-02 0.304E-02 -.283E-02
   -.222E+03 0.312E+03 -.342E+03   0.271E+03 -.365E+03 0.297E+03   -.446E+02 0.493E+02 0.412E+02   0.697E-02 -.234E-02 -.153E-01
   0.412E+03 -.103E+03 -.401E+03   -.484E+03 0.132E+03 0.367E+03   0.669E+02 -.259E+02 0.312E+02   0.109E-01 0.242E-02 -.144E-01
   -.273E+03 0.748E+02 -.487E+03   0.336E+03 -.101E+03 0.475E+03   -.605E+02 0.254E+02 0.106E+02   0.268E-02 -.435E-02 -.791E-02
   0.244E+03 -.160E+03 -.583E+03   -.308E+03 0.188E+03 0.594E+03   0.606E+02 -.253E+02 -.102E+02   0.266E-03 -.336E-02 -.352E-02
   -.107E+01 -.572E+00 -.631E+01   0.568E-13 0.142E-12 -.125E-11   0.110E+01 0.584E+00 0.632E+01   0.282E-01 -.147E-01 -.546E-02

 POSITION                                       TOTAL-FORCE (eV/Angst)
      1.25505     -0.72498     17.60092        -0.004923     -0.005458     -0.001299
      2.51099      1.45041     17.60168         0.000713      0.008369     -0.002302
      3.76726      3.62626     17.60218        -0.006040     -0.005746     -0.001025
      5.02335      5.80166     17.60061        -0.000062      0.008326     -0.001768
      2.51128     -2.90091     17.59511        -0.000491      0.002506     -0.003576
      3.76698     -0.72498     17.59310         0.005741     -0.004767     -0.000349
      5.02343      1.45032     17.59595        -0.000125      0.003309     -0.002903
      6.27974      3.62638     17.59183         0.007564     -0.004243      0.000590
      3.76770     -5.07669     17.59657        -0.007282     -0.005169     -0.000604
      5.02366     -2.90161     17.59447         0.001368      0.009869     -0.000727
      6.28019     -0.72526     17.59686        -0.005161     -0.004900     -0.001714
      7.53619      1.45036     17.59699         0.000448      0.009058     -0.000657
      5.02352     -7.25212     17.60367         0.000956      0.002596     -0.002221
      6.27948     -5.07664     17.60307         0.006744     -0.003337     -0.002099
      7.53585     -2.90100     17.60169        -0.000482      0.002177     -0.002206
      8.79188     -0.72511     17.60246         0.005445     -0.003238     -0.001347
      1.25522      0.72520     17.60420         0.000977     -0.000762     -0.002495
      2.51137      2.90077     17.60462         0.000396      0.000958      0.000439
      3.76741      5.07638     17.60363         0.003166     -0.000078     -0.002491
      5.02351      7.25208     17.60283         0.000252     -0.000117      0.001087
      2.51144     -1.45047     17.59754         0.000268      0.002949     -0.001985
      3.76751      0.72517     17.59790        -0.001749     -0.001653     -0.002898
      5.02380      2.90076     17.59901        -0.000527      0.001253     -0.000337
      6.27968      5.07651     17.59677        -0.001823     -0.001939     -0.001981
      3.76743     -3.62606     17.59648         0.001786     -0.001980     -0.002969
      5.02347     -1.45057     17.59654        -0.000373     -0.000095      0.001347
      6.27964      0.72524     17.59919         0.002203     -0.001750     -0.003229
      7.53557      2.90088     17.59250        -0.000091      0.001014      0.003399
      5.02346     -5.80171     17.60291         0.000629      0.001155     -0.001257
      6.27961     -3.62602     17.60125        -0.001690     -0.003201     -0.003066
      7.53567     -1.45050     17.60149         0.000571      0.002100     -0.000636
      8.79177      0.72528     17.60316        -0.001665     -0.003177     -0.003053
      5.05144     -1.07648     23.16488         0.002649      0.003117     -0.000200
      4.60150     -1.55932     21.75620        -0.010987      0.000745      0.011393
      6.36819      2.84864     21.30136         0.013045     -0.002701     -0.003061
      6.37276     -1.13544     23.22000        -0.002034     -0.002983      0.004744
      4.51595     -1.86354     24.08511        -0.004737     -0.005196      0.012687
      4.62887      0.16924     23.32457        -0.002466     -0.000136      0.006552
      5.30360     -2.33690     21.09569        -0.000188     -0.000709      0.003982
      3.54562     -1.14974     21.25457        -0.000196     -0.003349      0.008604
      7.42702      2.40303     21.11519        -0.002137      0.004042      0.002522
      5.30679      3.29194     21.47754         0.000311      0.003138     -0.002891
    total drift:                                0.062967     -0.002742      0.010320

  FREE ENERGIE OF THE ION-ELECTRON SYSTEM (eV)
  free  energy   TOTEN  =      -379.85742948 eV

  energy  without entropy=     -379.85310730  energy(sigma->0) =     -379.85526839

 d Force = 0.2363290E-04[ 0.739E-05, 0.399E-04]  d Energy = 0.2411223E-04-0.479E-06
 d Force = 0.1105933E+01[ 0.111E+01, 0.111E+01]  d Ewald  = 0.1105933E+01 0.510E-08

 Conjugate gradient step on ions:
 trial-energy change:   -0.000024  1 .order   -0.000024   -0.000040   -0.000007
  (g-gl).g = 0.212E-03      g.g   = 0.200E-03  gl.gl    = 0.138E-03
 g(Force)  = 0.200E-03   g(Stress)= 0.000E+00 ortho     =-0.144E-04
 gamma     =   1.54124
 trial     =   0.22370
 opt step  =   0.27461  (harmonic =   0.27461) maximal distance =0.00046294
 next E    =  -379.857430   (d E  =  -0.00002)

 reached required accuracy - stopping structural energy minimisation
 writing wavefunctions

 total charge

[...]

 magnetization (x)

# of ion       s       p       d       tot
    1       -0.000  -0.000   0.000  -0.000
    2        0.000   0.000   0.000   0.000
    3        0.000   0.000   0.000   0.000
    4        0.000  -0.000   0.000  -0.000
    5        0.000  -0.000   0.000   0.000
    6       -0.000  -0.000   0.000  -0.000
    7       -0.000   0.000   0.000   0.000
    8       -0.000  -0.000   0.000  -0.000
    9        0.000   0.000   0.000   0.000
   10       -0.000  -0.000   0.000  -0.000
   11       -0.000  -0.000   0.000  -0.000
   12        0.000  -0.000   0.000  -0.000
   13        0.000  -0.000   0.000   0.000
   14        0.000   0.000   0.000   0.000
   15        0.000   0.000   0.000   0.000
   16        0.000   0.000   0.000   0.000
   17        0.000   0.000   0.000   0.000
   18        0.000   0.000   0.000   0.000
   19       -0.000   0.000   0.000   0.000
   20        0.000   0.000   0.000   0.000
   21       -0.000   0.000   0.000   0.000
   22        0.000   0.000   0.000   0.000
   23        0.000   0.000   0.000   0.000
   24       -0.000   0.000   0.000   0.000
   25        0.000   0.000   0.000   0.000
   26        0.000   0.000   0.000   0.000
   27       -0.000   0.000   0.000   0.000
   28        0.000   0.000   0.000   0.000
   29       -0.000  -0.000   0.000  -0.000
   30       -0.000  -0.000   0.000  -0.000
   31       -0.000   0.000   0.000   0.000
   32        0.000   0.000   0.000   0.000
   33        0.000   0.000   0.000   0.000
   34        0.000  -0.000   0.000  -0.000
   35       -0.000   0.000   0.000   0.000
   36        0.000   0.000   0.000   0.000
   37       -0.000  -0.000   0.000  -0.000
   38        0.000   0.000   0.000   0.000
   39       -0.000   0.000   0.000   0.000
   40       -0.000  -0.000   0.000  -0.000
   41        0.000   0.000   0.000   0.000
   42        0.000   0.000   0.000   0.000
tot          0.000   0.000   0.000   0.000